(set-logic UFDT)
(declare-datatypes ((nat 0)) (((zero) (s (s0 nat)))))
(declare-fun add (nat nat) nat)
(declare-fun leq (nat nat) Bool)
(assert (forall ((y nat)) (= (add zero y) y)))
(assert (forall ((x nat) (y nat)) (= (add (s x) y) (s (add x y)))))
(assert (forall ((y nat)) (leq zero y)))
(assert (forall ((x nat)) (not (leq (s x) zero))))
(assert (forall ((x nat) (y nat)) (= (leq (s x) (s y)) (leq x y))))
(assert (not (forall ((v0 nat) (v1 nat) (v2 nat) (v3 nat) (v4 nat) (v5 nat) (v6 nat) (v7 nat) (v8 nat)) (= (add (s (add (s v5) (add (add (s (add (add (s v8) (s v2)) (add (s v7) (add v6 (s v1))))) (add (s v0) v4)) (s (s v0))))) (s (s (add (s v4) (s (s (s v3))))))) (add v3 (add (add (add (add v4 (add (s (s v0)) (s (s (s (s (s (s v4)))))))) v8) v2) (add v1 (add (add (add (s (s (s (s (s v7))))) (s v5)) (s v0)) (s v6)))))))))
(check-sat)
